letting numberLocations be  21
letting costs be function (
(0,0) --> 0,
(0,1) --> 49,
(0,2) --> 48,
(0,3) --> 42,
(0,4) --> 41,
(0,5) --> 37,
(0,6) --> 31,
(0,7) --> 31,
(0,8) --> 24,
(0,9) --> 28,
(0,10) --> 17,
(0,11) --> 23,
(0,12) --> 11,
(0,13) --> 16,
(0,14) --> 7,
(0,15) --> 20,
(0,16) --> 10,
(0,17) --> 22,
(0,18) --> 29,
(0,19) --> 31,
(0,20) --> 32,
(0,21) --> 34,
(1,0) --> 49,
(1,1) --> 0,
(1,2) --> 9,
(1,3) --> 23,
(1,4) --> 26,
(1,5) --> 21,
(1,6) --> 19,
(1,7) --> 24,
(1,8) --> 27,
(1,9) --> 30,
(1,10) --> 32,
(1,11) --> 40,
(1,12) --> 47,
(1,13) --> 55,
(1,14) --> 56,
(1,15) --> 57,
(1,16) --> 59,
(1,17) --> 71,
(1,18) --> 72,
(1,19) --> 78,
(1,20) --> 79,
(1,21) --> 83,
(2,0) --> 48,
(2,1) --> 9,
(2,2) --> 0,
(2,3) --> 30,
(2,4) --> 32,
(2,5) --> 15,
(2,6) --> 20,
(2,7) --> 19,
(2,8) --> 28,
(2,9) --> 25,
(2,10) --> 31,
(2,11) --> 43,
(2,12) --> 44,
(2,13) --> 56,
(2,14) --> 55,
(2,15) --> 53,
(2,16) --> 58,
(2,17) --> 69,
(2,18) --> 68,
(2,19) --> 78,
(2,20) --> 76,
(2,21) --> 81,
(3,0) --> 42,
(3,1) --> 23,
(3,2) --> 30,
(3,3) --> 0,
(3,4) --> 3,
(3,5) --> 34,
(3,6) --> 18,
(3,7) --> 33,
(3,8) --> 19,
(3,9) --> 38,
(3,10) --> 28,
(3,11) --> 23,
(3,12) --> 45,
(3,13) --> 40,
(3,14) --> 49,
(3,15) --> 57,
(3,16) --> 49,
(3,17) --> 63,
(3,18) --> 70,
(3,19) --> 65,
(3,20) --> 73,
(3,21) --> 73,
(4,0) --> 41,
(4,1) --> 26,
(4,2) --> 32,
(4,3) --> 3,
(4,4) --> 0,
(4,5) --> 35,
(4,6) --> 19,
(4,7) --> 34,
(4,8) --> 19,
(4,9) --> 38,
(4,10) --> 28,
(4,11) --> 21,
(4,12) --> 45,
(4,13) --> 38,
(4,14) --> 48,
(4,15) --> 57,
(4,16) --> 48,
(4,17) --> 62,
(4,18) --> 69,
(4,19) --> 63,
(4,20) --> 72,
(4,21) --> 71,
(5,0) --> 37,
(5,1) --> 21,
(5,2) --> 15,
(5,3) --> 34,
(5,4) --> 35,
(5,5) --> 0,
(5,6) --> 17,
(5,7) --> 5,
(5,8) --> 22,
(5,9) --> 11,
(5,10) --> 21,
(5,11) --> 38,
(5,12) --> 31,
(5,13) --> 47,
(5,14) --> 43,
(5,15) --> 39,
(5,16) --> 47,
(5,17) --> 56,
(5,18) --> 54,
(5,19) --> 67,
(5,20) --> 63,
(5,21) --> 69,
(6,0) --> 31,
(6,1) --> 19,
(6,2) --> 20,
(6,3) --> 18,
(6,4) --> 19,
(6,5) --> 17,
(6,6) --> 0,
(6,7) --> 16,
(6,8) --> 8,
(6,9) --> 20,
(6,10) --> 14,
(6,11) --> 23,
(6,12) --> 31,
(6,13) --> 36,
(6,14) --> 38,
(6,15) --> 42,
(6,16) --> 40,
(6,17) --> 53,
(6,18) --> 56,
(6,19) --> 59,
(6,20) --> 62,
(6,21) --> 64,
(7,0) --> 31,
(7,1) --> 24,
(7,2) --> 19,
(7,3) --> 33,
(7,4) --> 34,
(7,5) --> 5,
(7,6) --> 16,
(7,7) --> 0,
(7,8) --> 19,
(7,9) --> 6,
(7,10) --> 16,
(7,11) --> 35,
(7,12) --> 25,
(7,13) --> 43,
(7,14) --> 37,
(7,15) --> 34,
(7,16) --> 41,
(7,17) --> 51,
(7,18) --> 49,
(7,19) --> 62,
(7,20) --> 57,
(7,21) --> 64,
(8,0) --> 24,
(8,1) --> 27,
(8,2) --> 28,
(8,3) --> 19,
(8,4) --> 19,
(8,5) --> 22,
(8,6) --> 8,
(8,7) --> 19,
(8,8) --> 0,
(8,9) --> 21,
(8,10) --> 9,
(8,11) --> 16,
(8,12) --> 26,
(8,13) --> 28,
(8,14) --> 31,
(8,15) --> 38,
(8,16) --> 33,
(8,17) --> 46,
(8,18) --> 51,
(8,19) --> 52,
(8,20) --> 56,
(8,21) --> 57,
(9,0) --> 28,
(9,1) --> 30,
(9,2) --> 25,
(9,3) --> 38,
(9,4) --> 38,
(9,5) --> 11,
(9,6) --> 20,
(9,7) --> 6,
(9,8) --> 21,
(9,9) --> 0,
(9,10) --> 16,
(9,11) --> 35,
(9,12) --> 20,
(9,13) --> 40,
(9,14) --> 33,
(9,15) --> 28,
(9,16) --> 37,
(9,17) --> 46,
(9,18) --> 43,
(9,19) --> 58,
(9,20) --> 52,
(9,21) --> 59,
(10,0) --> 17,
(10,1) --> 32,
(10,2) --> 31,
(10,3) --> 28,
(10,4) --> 28,
(10,5) --> 21,
(10,6) --> 14,
(10,7) --> 16,
(10,8) --> 9,
(10,9) --> 16,
(10,10) --> 0,
(10,11) --> 20,
(10,12) --> 17,
(10,13) --> 26,
(10,14) --> 24,
(10,15) --> 29,
(10,16) --> 27,
(10,17) --> 39,
(10,18) --> 42,
(10,19) --> 47,
(10,20) --> 48,
(10,21) --> 51,
(11,0) --> 23,
(11,1) --> 40,
(11,2) --> 43,
(11,3) --> 23,
(11,4) --> 21,
(11,5) --> 38,
(11,6) --> 23,
(11,7) --> 35,
(11,8) --> 16,
(11,9) --> 35,
(11,10) --> 20,
(11,11) --> 0,
(11,12) --> 31,
(11,13) --> 17,
(11,14) --> 29,
(11,15) --> 43,
(11,16) --> 28,
(11,17) --> 42,
(11,18) --> 52,
(11,19) --> 42,
(11,20) --> 53,
(11,21) --> 50,
(12,0) --> 11,
(12,1) --> 47,
(12,2) --> 44,
(12,3) --> 45,
(12,4) --> 45,
(12,5) --> 31,
(12,6) --> 31,
(12,7) --> 25,
(12,8) --> 26,
(12,9) --> 20,
(12,10) --> 17,
(12,11) --> 31,
(12,12) --> 0,
(12,13) --> 27,
(12,14) --> 13,
(12,15) --> 12,
(12,16) --> 19,
(12,17) --> 26,
(12,18) --> 25,
(12,19) --> 39,
(12,20) --> 32,
(12,21) --> 39,
(13,0) --> 16,
(13,1) --> 55,
(13,2) --> 56,
(13,3) --> 40,
(13,4) --> 38,
(13,5) --> 47,
(13,6) --> 36,
(13,7) --> 43,
(13,8) --> 28,
(13,9) --> 40,
(13,10) --> 26,
(13,11) --> 17,
(13,12) --> 27,
(13,13) --> 0,
(13,14) --> 18,
(13,15) --> 36,
(13,16) --> 14,
(13,17) --> 28,
(13,18) --> 41,
(13,19) --> 25,
(13,20) --> 39,
(13,21) --> 34,
(14,0) --> 7,
(14,1) --> 56,
(14,2) --> 55,
(14,3) --> 49,
(14,4) --> 48,
(14,5) --> 43,
(14,6) --> 38,
(14,7) --> 37,
(14,8) --> 31,
(14,9) --> 33,
(14,10) --> 24,
(14,11) --> 29,
(14,12) --> 13,
(14,13) --> 18,
(14,14) --> 0,
(14,15) --> 18,
(14,16) --> 5,
(14,17) --> 15,
(14,18) --> 23,
(14,19) --> 25,
(14,20) --> 25,
(14,21) --> 27,
(15,0) --> 20,
(15,1) --> 57,
(15,2) --> 53,
(15,3) --> 57,
(15,4) --> 57,
(15,5) --> 39,
(15,6) --> 42,
(15,7) --> 34,
(15,8) --> 38,
(15,9) --> 28,
(15,10) --> 29,
(15,11) --> 43,
(15,12) --> 12,
(15,13) --> 36,
(15,14) --> 18,
(15,15) --> 0,
(15,16) --> 23,
(15,17) --> 23,
(15,18) --> 15,
(15,19) --> 40,
(15,20) --> 25,
(15,21) --> 36,
(16,0) --> 10,
(16,1) --> 59,
(16,2) --> 58,
(16,3) --> 49,
(16,4) --> 48,
(16,5) --> 47,
(16,6) --> 40,
(16,7) --> 41,
(16,8) --> 33,
(16,9) --> 37,
(16,10) --> 27,
(16,11) --> 28,
(16,12) --> 19,
(16,13) --> 14,
(16,14) --> 5,
(16,15) --> 23,
(16,16) --> 0,
(16,17) --> 14,
(16,18) --> 26,
(16,19) --> 21,
(16,20) --> 25,
(16,21) --> 24,
(17,0) --> 22,
(17,1) --> 71,
(17,2) --> 69,
(17,3) --> 63,
(17,4) --> 62,
(17,5) --> 56,
(17,6) --> 53,
(17,7) --> 51,
(17,8) --> 46,
(17,9) --> 46,
(17,10) --> 39,
(17,11) --> 42,
(17,12) --> 26,
(17,13) --> 28,
(17,14) --> 15,
(17,15) --> 23,
(17,16) --> 14,
(17,17) --> 0,
(17,18) --> 17,
(17,19) --> 18,
(17,20) --> 11,
(17,21) --> 14,
(18,0) --> 29,
(18,1) --> 72,
(18,2) --> 68,
(18,3) --> 70,
(18,4) --> 69,
(18,5) --> 54,
(18,6) --> 56,
(18,7) --> 49,
(18,8) --> 51,
(18,9) --> 43,
(18,10) --> 42,
(18,11) --> 52,
(18,12) --> 25,
(18,13) --> 41,
(18,14) --> 23,
(18,15) --> 15,
(18,16) --> 26,
(18,17) --> 17,
(18,18) --> 0,
(18,19) --> 35,
(18,20) --> 12,
(18,21) --> 27,
(19,0) --> 31,
(19,1) --> 78,
(19,2) --> 78,
(19,3) --> 65,
(19,4) --> 63,
(19,5) --> 67,
(19,6) --> 59,
(19,7) --> 62,
(19,8) --> 52,
(19,9) --> 58,
(19,10) --> 47,
(19,11) --> 42,
(19,12) --> 39,
(19,13) --> 25,
(19,14) --> 25,
(19,15) --> 40,
(19,16) --> 21,
(19,17) --> 18,
(19,18) --> 35,
(19,19) --> 0,
(19,20) --> 26,
(19,21) --> 12,
(20,0) --> 32,
(20,1) --> 79,
(20,2) --> 76,
(20,3) --> 73,
(20,4) --> 72,
(20,5) --> 63,
(20,6) --> 62,
(20,7) --> 57,
(20,8) --> 56,
(20,9) --> 52,
(20,10) --> 48,
(20,11) --> 53,
(20,12) --> 32,
(20,13) --> 39,
(20,14) --> 25,
(20,15) --> 25,
(20,16) --> 25,
(20,17) --> 11,
(20,18) --> 12,
(20,19) --> 26,
(20,20) --> 0,
(20,21) --> 16,
(21,0) --> 34,
(21,1) --> 83,
(21,2) --> 81,
(21,3) --> 73,
(21,4) --> 71,
(21,5) --> 69,
(21,6) --> 64,
(21,7) --> 64,
(21,8) --> 57,
(21,9) --> 59,
(21,10) --> 51,
(21,11) --> 50,
(21,12) --> 39,
(21,13) --> 34,
(21,14) --> 27,
(21,15) --> 36,
(21,16) --> 24,
(21,17) --> 14,
(21,18) --> 27,
(21,19) --> 12,
(21,20) --> 16,
(21,21) --> 0)
letting orderWeights be function (
1 --> 1100
,
2 --> 700
,
3 --> 800
,
4 --> 1400
,
5 --> 2100
,
6 --> 400
,
7 --> 800
,
8 --> 100
,
9 --> 500
,
10 --> 600
,
11 --> 1200
,
12 --> 1300
,
13 --> 1300
,
14 --> 300
,
15 --> 900
,
16 --> 2100
,
17 --> 1000
,
18 --> 900
,
19 --> 2500
,
20 --> 1800
,
21 --> 700
)
letting vehicleCapacity be 6000
